c Circuit-CNF generated by TG-PRO v1.0 (c) Huan Chen and Joao Marques-Silva
p cnf 851 2408
1 2 0
-1 -2 0
3 4 0
-3 -4 0
5 6 0
-5 -6 0
7 8 0
-7 -8 0
9 10 0
-9 -10 0
11 12 0
-11 -12 0
13 14 0
-13 -14 0
15 16 0
-15 -16 0
17 18 0
-17 -18 0
19 20 0
-19 -20 0
21 22 0
-21 -22 0
23 24 0
-23 -24 0
25 26 0
-25 -26 0
27 28 0
-27 -28 0
29 30 0
-29 -30 0
31 32 0
-31 -32 0
33 34 0
-33 -34 0
35 36 0
-35 -36 0
37 38 0
-37 -38 0
-39 40 0
-39 41 0
39 -40 -41 0
-42 43 0
-42 41 0
42 -43 -41 0
-44 45 0
-44 41 0
44 -45 -41 0
-46 47 0
-46 41 0
46 -47 -41 0
-48 49 0
-48 41 0
48 -49 -41 0
-50 51 0
-50 41 0
50 -51 -41 0
52 53 0
-52 -53 0
54 55 0
-54 -55 0
56 57 0
-56 -57 0
58 59 0
-58 -59 0
60 61 0
-60 -61 0
62 63 0
-62 -63 0
64 65 0
-64 -65 0
66 67 0
-66 -67 0
68 69 0
-68 -69 0
70 71 0
-70 -71 0
72 73 0
-72 -73 0
74 75 0
-74 -75 0
76 77 0
-76 -77 0
78 -63 0
78 -61 0
-78 63 61 0
79 78 0
-79 -78 0
80 71 0
-80 -71 0
81 80 0
-81 -80 0
82 -71 0
82 -73 0
-82 71 73 0
83 82 0
-83 -82 0
84 57 0
-84 -57 0
85 84 0
-85 -84 0
86 -73 0
86 -75 0
-86 73 75 0
87 86 0
-87 -86 0
88 72 0
-88 -72 0
89 88 0
-89 -88 0
90 -71 0
90 -77 0
-90 71 77 0
91 90 0
-91 -90 0
92 -56 0
92 -77 0
-92 56 77 0
93 92 0
-93 -92 0
94 -60 0
94 -62 0
-94 60 62 0
95 94 0
-95 -94 0
96 94 0
-96 -94 0
97 96 0
-97 -96 0
98 -58 0
98 -64 0
-98 58 64 0
99 98 0
-99 -98 0
100 -55 0
100 -64 0
-100 55 64 0
101 100 0
-101 -100 0
102 -66 0
102 -73 0
-102 66 73 0
103 102 0
-103 -102 0
104 -68 0
104 -73 0
-104 68 73 0
105 104 0
-105 -104 0
106 -68 0
106 -75 0
-106 68 75 0
107 106 0
-107 -106 0
108 -68 0
108 -70 0
-108 68 70 0
109 108 0
-109 -108 0
110 -70 0
110 -57 0
-110 70 57 0
111 110 0
-111 -110 0
112 -53 0
112 -72 0
-112 53 72 0
113 112 0
-113 -112 0
114 -72 0
114 -71 0
-114 72 71 0
115 114 0
-115 -114 0
116 -72 0
116 -77 0
-116 72 77 0
117 116 0
-117 -116 0
118 -56 0
118 -72 0
-118 56 72 0
119 118 0
-119 -118 0
120 -53 0
120 -74 0
-120 53 74 0
121 120 0
-121 -120 0
122 -72 0
122 -74 0
-122 72 74 0
123 122 0
-123 -122 0
124 -74 0
124 -77 0
-124 74 77 0
125 124 0
-125 -124 0
126 -74 0
126 -76 0
-126 74 76 0
127 126 0
-127 -126 0
128 -72 0
128 -76 0
-128 72 76 0
129 128 0
-129 -128 0
130 -71 0
130 -76 0
-130 71 76 0
131 130 0
-131 -130 0
132 75 0
-132 -75 0
133 132 0
-133 -132 0
134 -116 0
134 -75 0
-134 116 75 0
135 134 0
-135 -134 0
-136 69 0
-136 86 0
136 -69 -86 0
137 136 0
-137 -136 0
138 137 0
-138 -137 0
-139 140 0
-139 141 0
139 -140 -141 0
142 139 0
-142 -139 0
143 142 0
-143 -142 0
144 -113 0
144 -74 0
-144 113 74 0
145 144 0
-145 -144 0
-146 147 0
-146 148 0
146 -147 -148 0
2 146 0
-2 -146 0
-149 150 0
-149 76 0
149 -150 -76 0
4 149 0
-4 -149 0
151 -145 0
151 -71 0
-151 145 71 0
152 151 0
-152 -151 0
-153 154 0
-153 73 0
153 -154 -73 0
6 153 0
-6 -153 0
155 -156 0
155 -157 0
-155 156 157 0
8 155 0
-8 -155 0
158 -159 0
158 -160 0
-158 159 160 0
10 158 0
-10 -158 0
-161 162 0
-161 76 0
161 -162 -76 0
12 161 0
-12 -161 0
163 -164 0
163 -165 0
-163 164 165 0
14 163 0
-14 -163 0
-166 167 0
-166 68 0
166 -167 -68 0
16 166 0
-16 -166 0
168 -169 0
168 -170 0
-168 169 170 0
18 168 0
-18 -168 0
-171 172 0
-171 173 0
171 -172 -173 0
20 171 0
-20 -171 0
-174 175 0
-174 76 0
174 -175 -76 0
22 174 0
-22 -174 0
176 -177 0
176 -178 0
-176 177 178 0
24 176 0
-24 -176 0
179 -180 0
179 -181 0
-179 180 181 0
26 179 0
-26 -179 0
182 -183 0
182 -184 0
-182 183 184 0
28 182 0
-28 -182 0
185 -186 0
185 -187 0
-185 186 187 0
30 185 0
-30 -185 0
188 -189 0
188 -190 0
-188 189 190 0
191 188 0
-191 -188 0
192 -193 0
192 -194 0
-192 193 194 0
32 192 0
-32 -192 0
195 -196 0
195 -197 0
-195 196 197 0
198 195 0
-198 -195 0
199 -200 0
199 -201 0
-199 200 201 0
202 199 0
-202 -199 0
203 -204 0
203 -205 0
-203 204 205 0
206 203 0
-206 -203 0
207 -208 0
207 -209 0
-207 208 209 0
210 207 0
-210 -207 0
211 -212 0
211 -213 0
-211 212 213 0
34 211 0
-34 -211 0
214 -215 0
214 -216 0
-214 215 216 0
217 214 0
-217 -214 0
51 191 0
-51 -191 0
45 198 0
-45 -198 0
49 202 0
-49 -202 0
218 -219 0
218 -220 0
-218 219 220 0
36 218 0
-36 -218 0
40 206 0
-40 -206 0
43 210 0
-43 -210 0
47 217 0
-47 -217 0
221 -222 0
221 -223 0
-221 222 223 0
38 221 0
-38 -221 0
-224 71 0
-224 73 0
224 -71 -73 0
-225 71 0
-225 73 0
225 -71 -73 0
-226 227 0
-226 73 0
226 -227 -73 0
-228 69 0
-228 75 0
228 -69 -75 0
-229 53 0
-229 75 0
229 -53 -75 0
-230 53 0
-230 75 0
230 -53 -75 0
-231 57 0
-231 75 0
231 -57 -75 0
-232 71 0
-232 75 0
232 -71 -75 0
-233 55 0
-233 77 0
233 -55 -77 0
-234 58 0
-234 64 0
234 -58 -64 0
-148 235 0
-148 73 0
148 -235 -73 0
-236 237 0
-236 75 0
236 -237 -75 0
-238 239 0
-238 77 0
238 -239 -77 0
-240 68 0
-240 75 0
240 -68 -75 0
-241 242 0
-241 77 0
241 -242 -77 0
-243 244 0
-243 73 0
243 -244 -73 0
-245 246 0
-245 68 0
245 -246 -68 0
-247 248 0
-247 70 0
247 -248 -70 0
-249 70 0
-249 75 0
249 -70 -75 0
-250 58 0
-250 70 0
250 -58 -70 0
-251 252 0
-251 70 0
251 -252 -70 0
-253 254 0
-253 70 0
253 -254 -70 0
-255 68 0
-255 72 0
255 -68 -72 0
-256 257 0
-256 77 0
256 -257 -77 0
-258 259 0
-258 75 0
258 -259 -75 0
-260 72 0
-260 77 0
260 -72 -77 0
-261 262 0
-261 72 0
261 -262 -72 0
-263 68 0
-263 72 0
263 -68 -72 0
-264 265 0
-264 82 0
264 -265 -82 0
-266 73 0
-266 74 0
266 -73 -74 0
-267 65 0
-267 74 0
267 -65 -74 0
-268 269 0
-268 74 0
268 -269 -74 0
-270 70 0
-270 74 0
270 -70 -74 0
-271 68 0
-271 74 0
271 -68 -74 0
-272 73 0
-272 74 0
272 -73 -74 0
-273 71 0
-273 74 0
273 -71 -74 0
-274 73 0
-274 74 0
274 -73 -74 0
-275 73 0
-275 74 0
275 -73 -74 0
-276 73 0
-276 74 0
276 -73 -74 0
-277 86 0
-277 77 0
277 -86 -77 0
-278 66 0
-278 76 0
278 -66 -76 0
-279 69 0
-279 76 0
279 -69 -76 0
-280 281 0
-280 76 0
280 -281 -76 0
-282 283 0
-282 76 0
282 -283 -76 0
-284 285 0
-284 76 0
284 -285 -76 0
-286 287 0
-286 76 0
286 -287 -76 0
-288 289 0
-288 76 0
288 -289 -76 0
-290 291 0
-290 76 0
290 -291 -76 0
-292 293 0
-292 76 0
292 -293 -76 0
-294 72 0
-294 76 0
294 -72 -76 0
-295 82 0
-295 76 0
295 -82 -76 0
-296 297 0
-296 76 0
296 -297 -76 0
-298 74 0
-298 76 0
298 -74 -76 0
299 -57 0
299 -67 0
-299 57 67 0
-300 301 0
-300 82 0
300 -301 -82 0
-302 303 0
-302 76 0
302 -303 -76 0
-304 76 0
-304 86 0
304 -76 -86 0
-305 67 0
-305 76 0
305 -67 -76 0
306 -53 0
306 -77 0
-306 53 77 0
-307 306 0
-307 75 0
307 -306 -75 0
-308 92 0
-308 74 0
308 -92 -74 0
309 -62 0
309 -61 0
-309 62 61 0
-310 72 0
-310 309 0
310 -72 -309 0
-311 98 0
-311 74 0
311 -98 -74 0
312 -64 0
312 -73 0
-312 64 73 0
-313 314 0
-313 76 0
313 -314 -76 0
-315 316 0
-315 76 0
315 -316 -76 0
-317 108 0
-317 72 0
317 -108 -72 0
-318 75 0
-318 110 0
318 -75 -110 0
-319 114 0
-319 75 0
319 -114 -75 0
-320 69 0
-320 116 0
320 -69 -116 0
-321 75 0
-321 116 0
321 -75 -116 0
-322 118 0
-322 74 0
322 -118 -74 0
-323 75 0
-323 118 0
323 -75 -118 0
-324 325 0
-324 83 0
324 -325 -83 0
-326 327 0
-326 83 0
326 -327 -83 0
-328 329 0
-328 122 0
328 -329 -122 0
-330 69 0
-330 85 0
330 -69 -85 0
-331 71 0
-331 124 0
331 -71 -124 0
-332 333 0
-332 87 0
332 -333 -87 0
-334 335 0
-334 245 0
334 -335 -245 0
-336 337 0
-336 87 0
336 -337 -87 0
-338 71 0
-338 87 0
338 -71 -87 0
-339 340 0
-339 87 0
339 -340 -87 0
-341 342 0
-341 87 0
341 -342 -87 0
-343 344 0
-343 87 0
343 -344 -87 0
-345 346 0
-345 87 0
345 -346 -87 0
-347 126 0
-347 70 0
347 -126 -70 0
-348 83 0
-348 126 0
348 -83 -126 0
-349 128 0
-349 70 0
349 -128 -70 0
-350 130 0
-350 72 0
350 -130 -72 0
-351 352 0
-351 91 0
351 -352 -91 0
-353 74 0
-353 91 0
353 -74 -91 0
-354 355 0
-354 91 0
354 -355 -91 0
356 -71 0
356 -233 0
-356 71 233 0
-357 358 0
-357 75 0
357 -358 -75 0
-359 93 0
-359 82 0
359 -93 -82 0
-360 361 0
-360 95 0
360 -361 -95 0
-362 363 0
-362 95 0
362 -363 -95 0
-364 72 0
-364 95 0
364 -72 -95 0
-365 366 0
-365 95 0
365 -366 -95 0
-367 71 0
-367 95 0
367 -71 -95 0
-368 91 0
-368 95 0
368 -91 -95 0
-369 370 0
-369 95 0
369 -370 -95 0
-371 372 0
-371 95 0
371 -372 -95 0
-373 374 0
-373 95 0
373 -374 -95 0
-375 106 0
-375 95 0
375 -106 -95 0
-376 377 0
-376 268 0
376 -377 -268 0
141 -100 0
141 -52 0
-141 100 52 0
378 -234 0
378 -75 0
-378 234 75 0
-379 378 0
-379 72 0
379 -378 -72 0
-380 76 0
-380 103 0
380 -76 -103 0
-381 382 0
-381 105 0
381 -382 -105 0
-383 384 0
-383 105 0
383 -384 -105 0
-385 386 0
-385 107 0
385 -386 -107 0
-387 77 0
-387 107 0
387 -77 -107 0
-388 76 0
-388 107 0
388 -76 -107 0
-389 90 0
-389 107 0
389 -90 -107 0
-390 57 0
-390 109 0
390 -57 -109 0
-391 76 0
-391 109 0
391 -76 -109 0
-392 75 0
-392 109 0
392 -75 -109 0
-393 69 0
-393 111 0
393 -69 -111 0
-394 395 0
-394 111 0
394 -395 -111 0
-396 397 0
-396 111 0
396 -397 -111 0
-398 399 0
-398 111 0
398 -399 -111 0
400 -247 0
400 -236 0
-400 247 236 0
-401 402 0
-401 400 0
401 -402 -400 0
403 -249 0
403 -77 0
-403 249 77 0
-404 72 0
-404 403 0
404 -72 -403 0
-405 406 0
-405 113 0
405 -406 -113 0
-407 408 0
-407 113 0
407 -408 -113 0
-409 107 0
-409 115 0
409 -107 -115 0
-410 77 0
-410 115 0
410 -77 -115 0
-411 412 0
-411 109 0
411 -412 -109 0
-413 120 0
-413 117 0
413 -120 -117 0
-414 134 0
-414 71 0
414 -134 -71 0
-415 76 0
-415 119 0
415 -76 -119 0
-416 74 0
-416 119 0
416 -74 -119 0
-417 418 0
-417 119 0
417 -418 -119 0
419 -73 0
419 -81 0
-419 73 81 0
-420 421 0
-420 75 0
420 -421 -75 0
422 -83 0
422 -225 0
-422 83 225 0
-423 424 0
-423 75 0
423 -424 -75 0
-425 70 0
-425 123 0
425 -70 -123 0
-426 52 0
-426 123 0
426 -52 -123 0
-427 71 0
-427 123 0
427 -71 -123 0
-428 70 0
-428 123 0
428 -70 -123 0
-429 430 0
-429 123 0
429 -430 -123 0
-431 432 0
-431 123 0
431 -432 -123 0
-433 434 0
-433 123 0
433 -434 -123 0
-435 70 0
-435 123 0
435 -70 -123 0
-436 68 0
-436 123 0
436 -68 -123 0
437 -229 0
437 -266 0
-437 229 266 0
-438 437 0
-438 68 0
438 -437 -68 0
-439 440 0
-439 125 0
439 -440 -125 0
-441 442 0
-441 125 0
441 -442 -125 0
-443 73 0
-443 125 0
443 -73 -125 0
-444 68 0
-444 125 0
444 -68 -125 0
-445 72 0
-445 125 0
445 -72 -125 0
-446 73 0
-446 125 0
446 -73 -125 0
-447 448 0
-447 125 0
447 -448 -125 0
-449 450 0
-449 125 0
449 -450 -125 0
-451 452 0
-451 125 0
451 -452 -125 0
-453 454 0
-453 125 0
453 -454 -125 0
-455 456 0
-455 113 0
455 -456 -113 0
-457 458 0
-457 125 0
457 -458 -125 0
-459 460 0
-459 125 0
459 -460 -125 0
-461 125 0
-461 114 0
461 -125 -114 0
-462 463 0
-462 125 0
462 -463 -125 0
-464 465 0
-464 125 0
464 -465 -125 0
466 -224 0
466 -255 0
-466 224 255 0
-467 466 0
-467 125 0
467 -466 -125 0
-468 83 0
-468 125 0
468 -83 -125 0
469 -124 0
469 -250 0
-469 124 250 0
-470 469 0
-470 72 0
470 -469 -72 0
471 -124 0
471 -263 0
-471 124 263 0
-472 71 0
-472 471 0
472 -71 -471 0
473 -71 0
473 -267 0
-473 71 267 0
-474 473 0
-474 72 0
474 -473 -72 0
475 -87 0
475 -70 0
-475 87 70 0
-476 475 0
-476 69 0
476 -475 -69 0
-477 69 0
-477 475 0
477 -69 -475 0
-212 478 0
-212 345 0
212 -478 -345 0
-479 480 0
-479 127 0
479 -480 -127 0
-481 482 0
-481 115 0
481 -482 -115 0
-483 72 0
-483 127 0
483 -72 -127 0
-484 485 0
-484 127 0
484 -485 -127 0
-486 487 0
-486 101 0
486 -487 -101 0
-488 65 0
-488 127 0
488 -65 -127 0
-489 72 0
-489 127 0
489 -72 -127 0
-490 69 0
-490 127 0
490 -69 -127 0
-159 491 0
-159 253 0
159 -491 -253 0
-492 72 0
-492 127 0
492 -72 -127 0
-493 494 0
-493 127 0
493 -494 -127 0
-495 496 0
-495 127 0
495 -496 -127 0
-497 498 0
-497 127 0
497 -498 -127 0
-499 71 0
-499 127 0
499 -71 -127 0
500 -228 0
500 -278 0
-500 228 278 0
-501 54 0
-501 500 0
501 -54 -500 0
-502 58 0
-502 129 0
502 -58 -129 0
-503 74 0
-503 129 0
503 -74 -129 0
-504 74 0
-504 129 0
504 -74 -129 0
-505 506 0
-505 129 0
505 -506 -129 0
-507 74 0
-507 129 0
507 -74 -129 0
508 -238 0
508 -279 0
-508 238 279 0
-509 58 0
-509 508 0
509 -58 -508 0
-510 511 0
-510 131 0
510 -511 -131 0
-512 74 0
-512 131 0
512 -74 -131 0
-513 67 0
-513 131 0
513 -67 -131 0
-514 515 0
-514 131 0
514 -515 -131 0
-516 72 0
-516 131 0
516 -72 -131 0
-517 122 0
-517 131 0
517 -122 -131 0
-518 73 0
-518 131 0
518 -73 -131 0
-519 73 0
-519 131 0
519 -73 -131 0
-520 521 0
-520 131 0
520 -521 -131 0
522 -308 0
522 -89 0
-522 308 89 0
-523 522 0
-523 70 0
523 -522 -70 0
524 -95 0
524 -57 0
-524 95 57 0
-525 524 0
-525 125 0
525 -524 -125 0
526 -77 0
526 -310 0
-526 77 310 0
-527 526 0
-527 74 0
527 -526 -74 0
528 -231 0
528 -311 0
-528 231 311 0
-529 69 0
-529 528 0
529 -69 -528 0
-530 531 0
-530 76 0
530 -531 -76 0
532 -105 0
532 -243 0
-532 105 243 0
-533 532 0
-533 93 0
533 -532 -93 0
534 -107 0
534 -72 0
-534 107 72 0
-535 534 0
-535 77 0
535 -534 -77 0
536 -226 0
536 -317 0
-536 226 317 0
-537 538 0
-537 536 0
537 -538 -536 0
539 -111 0
539 -240 0
-539 111 240 0
-540 539 0
-540 309 0
540 -539 -309 0
541 -69 0
541 -319 0
-541 69 319 0
-187 542 0
-187 541 0
187 -542 -541 0
-543 71 0
-543 135 0
543 -71 -135 0
-156 544 0
-156 109 0
156 -544 -109 0
-545 70 0
-545 135 0
545 -70 -135 0
-546 547 0
-546 109 0
546 -547 -109 0
548 -321 0
548 -313 0
-548 321 313 0
-549 548 0
-549 71 0
549 -548 -71 0
550 -322 0
550 -318 0
-550 322 318 0
-551 69 0
-551 550 0
551 -69 -550 0
552 -275 0
552 -323 0
-552 275 323 0
-553 70 0
-553 552 0
553 -70 -552 0
554 -121 0
554 -270 0
-554 121 270 0
-555 66 0
-555 554 0
555 -66 -554 0
-556 67 0
-556 138 0
556 -67 -138 0
557 -437 0
557 -71 0
-557 437 71 0
-558 557 0
-558 68 0
558 -557 -68 0
559 -339 0
559 -328 0
-559 339 328 0
-560 69 0
-560 559 0
560 -69 -559 0
561 -127 0
561 -284 0
-561 127 284 0
-562 58 0
-562 561 0
562 -58 -561 0
563 -127 0
563 -288 0
-563 127 288 0
-564 563 0
-564 72 0
564 -563 -72 0
565 -127 0
565 -97 0
-565 127 97 0
-566 565 0
-566 72 0
566 -565 -72 0
567 -347 0
567 -298 0
-567 347 298 0
-568 569 0
-568 73 0
568 -569 -73 0
570 -349 0
570 -294 0
-570 349 294 0
-571 572 0
-571 74 0
571 -572 -74 0
573 -131 0
573 -74 0
-573 131 74 0
-574 573 0
-574 72 0
574 -573 -72 0
575 -131 0
575 -292 0
-575 131 292 0
-576 575 0
-576 107 0
576 -575 -107 0
577 -131 0
577 -273 0
-577 131 273 0
-578 577 0
-578 105 0
578 -577 -105 0
579 -357 0
579 -296 0
-579 357 296 0
-580 579 0
-580 72 0
580 -579 -72 0
581 -360 0
581 -271 0
-581 360 271 0
-582 583 0
-582 76 0
582 -583 -76 0
584 -364 0
584 -230 0
-584 364 230 0
-585 584 0
-585 76 0
585 -584 -76 0
586 -365 0
586 -256 0
-586 365 256 0
-587 588 0
-587 586 0
587 -588 -586 0
589 -115 0
589 -367 0
-589 115 367 0
-590 591 0
-590 589 0
590 -591 -589 0
-592 71 0
-592 143 0
592 -71 -143 0
593 -379 0
593 -274 0
-593 379 274 0
-594 593 0
-594 77 0
594 -593 -77 0
595 -380 0
595 -277 0
-595 380 277 0
-596 595 0
-596 70 0
596 -595 -70 0
597 -351 0
597 -381 0
-597 351 381 0
-598 597 0
-598 94 0
598 -597 -94 0
599 -385 0
599 -241 0
-599 385 241 0
-157 600 0
-157 72 0
157 -600 -72 0
601 -390 0
601 -362 0
-601 390 362 0
602 -391 0
602 -260 0
-602 391 260 0
-603 58 0
-603 602 0
603 -58 -602 0
604 -392 0
604 -251 0
-604 392 251 0
-605 604 0
-605 95 0
605 -604 -95 0
606 -405 0
606 -393 0
-606 405 393 0
-607 608 0
-607 75 0
607 -608 -75 0
609 -407 0
609 -394 0
-609 407 394 0
-610 611 0
-610 76 0
610 -611 -76 0
612 -409 0
612 -258 0
-612 409 258 0
-209 613 0
-209 612 0
209 -613 -612 0
614 -410 0
614 -350 0
-614 410 350 0
-615 614 0
-615 107 0
615 -614 -107 0
616 -411 0
616 -324 0
-616 411 324 0
-160 617 0
-160 74 0
160 -617 -74 0
618 -619 0
618 -307 0
-618 619 307 0
-620 68 0
-620 618 0
620 -68 -618 0
621 -415 0
621 -320 0
-621 415 320 0
-622 621 0
-622 74 0
622 -621 -74 0
623 -425 0
623 -76 0
-623 425 76 0
-624 623 0
-624 69 0
624 -623 -69 0
625 -426 0
625 -87 0
-625 426 87 0
-626 627 0
-626 95 0
626 -627 -95 0
-628 629 0
-628 625 0
628 -629 -625 0
630 -428 0
630 -261 0
-630 428 261 0
-631 632 0
-631 630 0
631 -632 -630 0
633 -429 0
633 -383 0
-633 429 383 0
-634 635 0
-634 91 0
634 -635 -91 0
636 -431 0
636 -334 0
-636 431 334 0
-637 56 0
-637 636 0
637 -56 -636 0
638 -433 0
638 -336 0
-638 433 336 0
-639 640 0
-639 77 0
639 -640 -77 0
641 -416 0
641 -438 0
-641 416 438 0
-642 643 0
-642 70 0
642 -643 -70 0
644 -439 0
644 -332 0
-644 439 332 0
-645 644 0
-645 70 0
645 -644 -70 0
646 -387 0
646 -441 0
-646 387 441 0
-647 646 0
-647 72 0
647 -646 -72 0
648 -389 0
648 -444 0
-648 389 444 0
-649 648 0
-649 72 0
649 -648 -72 0
650 -435 0
650 -474 0
-650 435 474 0
-651 652 0
-651 650 0
651 -652 -650 0
653 -376 0
653 -479 0
-653 376 479 0
654 -481 0
654 -280 0
-654 481 280 0
-655 57 0
-655 654 0
655 -57 -654 0
656 -483 0
656 -272 0
-656 483 272 0
-657 656 0
-657 68 0
657 -656 -68 0
-658 71 0
-658 656 0
658 -71 -656 0
659 -484 0
659 -282 0
-659 484 282 0
-660 54 0
-660 659 0
660 -54 -659 0
661 -368 0
661 -486 0
-661 368 486 0
-662 52 0
-662 661 0
662 -52 -661 0
663 -488 0
663 -290 0
-663 488 290 0
-664 54 0
-664 663 0
664 -54 -663 0
665 -413 0
665 -489 0
-665 413 489 0
-666 665 0
-666 70 0
666 -665 -70 0
667 -135 0
667 -492 0
-667 135 492 0
-668 667 0
-668 68 0
668 -667 -68 0
669 -497 0
669 -302 0
-669 497 302 0
-670 669 0
-670 71 0
670 -669 -71 0
671 -490 0
671 -501 0
-671 490 501 0
-672 671 0
-672 70 0
672 -671 -70 0
673 -502 0
673 -71 0
-673 502 71 0
-674 673 0
-674 68 0
674 -673 -68 0
675 -388 0
675 -509 0
-675 388 509 0
-676 675 0
-676 83 0
676 -675 -83 0
677 -427 0
677 -510 0
-677 427 510 0
-678 68 0
-678 677 0
678 -68 -677 0
679 -512 0
679 -286 0
-679 512 286 0
-680 64 0
-680 679 0
680 -64 -679 0
681 -513 0
681 -443 0
-681 513 443 0
-682 681 0
-682 69 0
682 -681 -69 0
683 -514 0
683 -315 0
-683 514 315 0
-684 685 0
-684 683 0
684 -685 -683 0
686 -516 0
686 -295 0
-686 516 295 0
-687 686 0
-687 107 0
687 -686 -107 0
688 -517 0
688 -338 0
-688 517 338 0
-190 689 0
-190 69 0
190 -689 -69 0
690 -518 0
690 -359 0
-690 518 359 0
-691 690 0
-691 75 0
691 -690 -75 0
692 -519 0
692 -300 0
-692 519 300 0
-693 692 0
-693 75 0
693 -692 -75 0
694 -525 0
694 -70 0
-694 525 70 0
-695 694 0
-695 73 0
695 -694 -73 0
-696 151 0
-696 68 0
696 -151 -68 0
697 -543 0
697 -348 0
-697 543 348 0
-698 697 0
-698 69 0
698 -697 -69 0
699 -455 0
699 -549 0
-699 455 549 0
-700 68 0
-700 699 0
700 -68 -699 0
701 -702 0
701 -472 0
-701 702 472 0
-170 66 0
-170 701 0
170 -66 -701 0
703 -553 0
703 -304 0
-703 553 304 0
-704 69 0
-704 703 0
704 -69 -703 0
705 -232 0
705 -555 0
-705 232 555 0
-706 705 0
-706 73 0
706 -705 -73 0
707 -436 0
707 -556 0
-707 436 556 0
-708 707 0
-708 71 0
708 -707 -71 0
709 -710 0
709 -529 0
-709 710 529 0
-165 66 0
-165 709 0
165 -66 -709 0
711 -504 0
711 -564 0
-711 504 564 0
-712 713 0
-712 70 0
712 -713 -70 0
714 -451 0
714 -568 0
-714 451 568 0
-715 67 0
-715 714 0
715 -67 -714 0
716 -446 0
716 -574 0
-716 446 574 0
-717 69 0
-717 716 0
717 -69 -716 0
718 -545 0
718 -580 0
-718 545 580 0
-719 57 0
-719 718 0
719 -57 -718 0
720 -520 0
720 -582 0
-720 520 582 0
-721 56 0
-721 720 0
721 -56 -720 0
722 -503 0
722 -585 0
-722 503 585 0
-723 722 0
-723 70 0
723 -722 -70 0
724 -725 0
724 -592 0
-724 725 592 0
-726 69 0
-726 724 0
726 -69 -724 0
727 -343 0
727 -596 0
-727 343 596 0
-169 727 0
-169 69 0
169 -727 -69 0
728 -373 0
728 -603 0
-728 373 603 0
-729 728 0
-729 74 0
729 -728 -74 0
730 -369 0
730 -607 0
-730 369 607 0
-731 68 0
-731 152 0
731 -68 -152 0
732 -445 0
732 -624 0
-732 445 624 0
-733 67 0
-733 732 0
733 -67 -732 0
734 -735 0
734 -594 0
-734 735 594 0
-736 734 0
-736 68 0
736 -734 -68 0
737 -396 0
737 -628 0
-737 396 628 0
-173 738 0
-173 62 0
173 -738 -62 0
739 -740 0
739 -423 0
-739 740 423 0
-178 739 0
-178 76 0
178 -739 -76 0
741 -493 0
741 -645 0
-741 493 645 0
742 -449 0
742 -649 0
-742 449 649 0
-205 67 0
-205 742 0
205 -67 -742 0
743 -135 0
743 -657 0
-743 135 657 0
-744 743 0
-744 70 0
744 -743 -70 0
745 -371 0
745 -660 0
-745 371 660 0
-746 745 0
-746 72 0
746 -745 -72 0
747 -353 0
747 -662 0
-747 353 662 0
-748 747 0
-748 73 0
748 -747 -73 0
749 -750 0
749 -535 0
-749 750 535 0
-751 749 0
-751 71 0
751 -749 -71 0
752 -341 0
752 -666 0
-752 341 666 0
-753 68 0
-753 752 0
753 -68 -752 0
754 -417 0
754 -668 0
-754 417 668 0
-755 754 0
-755 70 0
755 -754 -70 0
756 -757 0
756 -566 0
-756 757 566 0
-758 69 0
-758 756 0
758 -69 -756 0
759 -453 0
759 -672 0
-759 453 672 0
-223 759 0
-223 73 0
223 -759 -73 0
760 -495 0
760 -674 0
-760 495 674 0
-761 57 0
-761 760 0
761 -57 -760 0
762 -682 0
762 -587 0
-762 682 587 0
-763 56 0
-763 762 0
763 -56 -762 0
764 -684 0
764 -537 0
-764 684 537 0
-765 764 0
-765 75 0
765 -764 -75 0
766 -687 0
766 -447 0
-766 687 447 0
-193 766 0
-193 67 0
193 -766 -67 0
767 -691 0
767 -305 0
-767 691 305 0
-220 69 0
-220 767 0
220 -69 -767 0
768 -693 0
768 -571 0
-768 693 571 0
-177 69 0
-177 768 0
177 -69 -768 0
769 -462 0
769 -695 0
-769 462 695 0
-770 69 0
-770 769 0
770 -69 -769 0
771 -457 0
771 -698 0
-771 457 698 0
-772 771 0
-772 67 0
772 -771 -67 0
773 -774 0
773 -775 0
-773 774 775 0
-181 66 0
-181 773 0
181 -66 -773 0
776 -704 0
776 -461 0
-776 704 461 0
-777 67 0
-777 776 0
777 -67 -776 0
778 -706 0
778 -264 0
-778 706 264 0
-779 778 0
-779 76 0
779 -778 -76 0
175 -708 0
175 -401 0
-175 708 401 0
780 -546 0
780 -712 0
-780 546 712 0
-184 66 0
-184 780 0
184 -66 -780 0
781 -467 0
781 -717 0
-781 467 717 0
-201 67 0
-201 781 0
201 -67 -781 0
782 -459 0
782 -723 0
-782 459 723 0
-783 66 0
-783 782 0
783 -66 -782 0
784 -731 0
784 -398 0
-784 731 398 0
-785 784 0
-785 95 0
785 -784 -95 0
786 -787 0
786 -788 0
-786 787 788 0
-789 66 0
-789 786 0
789 -66 -786 0
790 -751 0
790 -700 0
-790 751 700 0
-791 790 0
-791 66 0
791 -790 -66 0
792 -755 0
792 -610 0
-792 755 610 0
-194 792 0
-194 66 0
194 -792 -66 0
793 -794 0
793 -651 0
-793 794 651 0
-197 66 0
-197 793 0
197 -66 -793 0
795 -796 0
795 -761 0
-795 796 761 0
-797 795 0
-797 66 0
797 -795 -66 0
798 -799 0
798 -678 0
-798 799 678 0
-800 798 0
-800 66 0
800 -798 -66 0
801 -802 0
801 -803 0
-801 802 803 0
-804 801 0
-804 66 0
804 -801 -66 0
805 -779 0
805 -733 0
-805 779 733 0
-213 805 0
-213 57 0
213 -805 -57 0
806 -807 0
806 -808 0
-806 807 808 0
-216 66 0
-216 806 0
216 -66 -806 0
809 -468 0
809 -783 0
-809 468 783 0
-219 809 0
-219 68 0
219 -809 -68 0
810 -785 0
810 -420 0
-810 785 420 0
-811 810 0
-811 76 0
811 -810 -76 0
812 -744 0
812 -811 0
-812 744 811 0
-813 66 0
-813 812 0
813 -66 -812 0
775 -814 0
775 -331 0
-775 814 331 0
788 -815 0
788 -696 0
-788 815 696 0
803 -816 0
803 -507 0
-803 816 507 0
808 -817 0
808 -560 0
-808 817 560 0
-140 59 0
-140 77 0
140 -59 -77 0
-818 127 0
-818 109 0
818 -127 -109 0
-147 818 0
-147 100 0
147 -818 -100 0
-819 601 0
-819 66 0
819 -601 -66 0
-150 819 0
-150 72 0
150 -819 -72 0
-154 653 0
-154 69 0
154 -653 -69 0
-162 730 0
-162 66 0
162 -730 -66 0
164 -464 0
164 -476 0
-164 464 476 0
-167 741 0
-167 66 0
167 -741 -66 0
-172 66 0
-172 76 0
172 -66 -76 0
180 -578 0
180 -715 0
-180 578 715 0
183 -634 0
183 -765 0
-183 634 765 0
186 -789 0
186 -477 0
-186 789 477 0
189 -721 0
189 -791 0
-189 721 791 0
196 -615 0
196 -530 0
-196 615 530 0
820 -576 0
820 -797 0
-820 576 797 0
200 -820 0
200 -763 0
-200 820 763 0
821 -354 0
821 -637 0
-821 354 637 0
204 -821 0
204 -800 0
-204 821 800 0
822 -804 0
822 -647 0
-822 804 647 0
208 -822 0
208 -655 0
-208 822 655 0
215 -676 0
215 -777 0
-215 676 777 0
222 -772 0
222 -813 0
-222 772 813 0
-227 69 0
-227 71 0
227 -69 -71 0
-235 59 0
-235 66 0
235 -59 -66 0
-237 53 0
-237 68 0
237 -53 -68 0
-823 64 0
-823 66 0
823 -64 -66 0
-239 823 0
-239 68 0
239 -823 -68 0
-242 68 0
-242 71 0
242 -68 -71 0
-244 68 0
-244 71 0
244 -68 -71 0
-824 55 0
-824 65 0
824 -55 -65 0
-246 824 0
-246 66 0
246 -824 -66 0
-248 56 0
-248 69 0
248 -56 -69 0
-252 66 0
-252 68 0
252 -66 -68 0
-254 67 0
-254 69 0
254 -67 -69 0
-257 55 0
-257 72 0
257 -55 -72 0
-259 68 0
-259 72 0
259 -68 -72 0
-262 54 0
-262 71 0
262 -54 -71 0
-265 69 0
-265 75 0
265 -69 -75 0
-269 66 0
-269 71 0
269 -66 -71 0
-825 66 0
-825 71 0
825 -66 -71 0
-281 825 0
-281 72 0
281 -825 -72 0
-826 68 0
-826 71 0
826 -68 -71 0
-283 826 0
-283 74 0
283 -826 -74 0
-285 68 0
-285 74 0
285 -68 -74 0
-827 68 0
-827 71 0
827 -68 -71 0
-287 827 0
-287 72 0
287 -827 -72 0
-289 62 0
-289 74 0
289 -62 -74 0
-291 68 0
-291 74 0
291 -68 -74 0
-293 59 0
-293 72 0
293 -59 -72 0
-828 68 0
-828 71 0
828 -68 -71 0
-297 828 0
-297 74 0
297 -828 -74 0
-301 299 0
-301 76 0
301 -299 -76 0
-303 64 0
-303 74 0
303 -64 -74 0
-314 312 0
-314 74 0
314 -312 -74 0
-829 102 0
-829 62 0
829 -102 -62 0
-316 829 0
-316 71 0
316 -829 -71 0
-830 64 0
-830 68 0
830 -64 -68 0
-325 830 0
-325 77 0
325 -830 -77 0
-327 69 0
-327 76 0
327 -69 -76 0
-329 71 0
-329 77 0
329 -71 -77 0
-333 65 0
-333 77 0
333 -65 -77 0
-831 71 0
-831 76 0
831 -71 -76 0
-335 831 0
-335 87 0
335 -831 -87 0
-337 68 0
-337 70 0
337 -68 -70 0
-340 59 0
-340 76 0
340 -59 -76 0
-832 64 0
-832 71 0
832 -64 -71 0
-342 832 0
-342 76 0
342 -832 -76 0
-344 71 0
-344 77 0
344 -71 -77 0
-346 66 0
-346 68 0
346 -66 -68 0
-352 68 0
-352 73 0
352 -68 -73 0
-355 69 0
-355 73 0
355 -69 -73 0
-358 356 0
-358 69 0
358 -356 -69 0
-361 69 0
-361 75 0
361 -69 -75 0
-833 68 0
-833 70 0
833 -68 -70 0
-363 833 0
-363 74 0
363 -833 -74 0
-366 69 0
-366 76 0
366 -69 -76 0
-834 68 0
-834 70 0
834 -68 -70 0
-370 834 0
-370 87 0
370 -834 -87 0
-372 74 0
-372 91 0
372 -74 -91 0
-374 76 0
-374 83 0
374 -76 -83 0
-377 76 0
-377 99 0
377 -76 -99 0
-382 71 0
-382 75 0
382 -71 -75 0
-384 56 0
-384 67 0
384 -56 -67 0
-386 56 0
-386 76 0
386 -56 -76 0
-395 69 0
-395 75 0
395 -69 -75 0
-397 69 0
-397 75 0
397 -69 -75 0
-399 69 0
-399 75 0
399 -69 -75 0
-402 66 0
-402 73 0
402 -66 -73 0
-406 68 0
-406 70 0
406 -68 -70 0
-408 68 0
-408 70 0
408 -68 -70 0
-412 65 0
-412 117 0
412 -65 -117 0
-418 74 0
-418 76 0
418 -74 -76 0
-835 419 0
-835 57 0
835 -419 -57 0
-421 835 0
-421 69 0
421 -835 -69 0
-424 422 0
-424 68 0
424 -422 -68 0
-836 62 0
-836 66 0
836 -62 -66 0
-430 836 0
-430 68 0
430 -836 -68 0
-432 69 0
-432 70 0
432 -69 -70 0
-837 53 0
-837 100 0
837 -53 -100 0
-434 837 0
-434 69 0
434 -837 -69 0
-440 53 0
-440 73 0
440 -53 -73 0
-442 68 0
-442 71 0
442 -68 -71 0
-448 104 0
-448 71 0
448 -104 -71 0
-450 71 0
-450 73 0
450 -71 -73 0
-452 68 0
-452 72 0
452 -68 -72 0
-454 55 0
-454 71 0
454 -55 -71 0
-838 70 0
-838 125 0
838 -70 -125 0
-456 838 0
-456 95 0
456 -838 -95 0
-458 68 0
-458 72 0
458 -68 -72 0
-460 71 0
-460 73 0
460 -71 -73 0
-463 71 0
-463 72 0
463 -71 -72 0
-465 68 0
-465 72 0
465 -68 -72 0
-478 91 0
-478 95 0
478 -91 -95 0
-839 57 0
-839 67 0
839 -57 -67 0
-480 839 0
-480 70 0
480 -839 -70 0
-840 67 0
-840 69 0
840 -67 -69 0
-482 840 0
-482 127 0
482 -840 -127 0
-485 56 0
-485 69 0
485 -56 -69 0
-841 59 0
-841 69 0
841 -59 -69 0
-487 841 0
-487 127 0
487 -841 -127 0
-491 127 0
-491 119 0
491 -127 -119 0
-494 71 0
-494 73 0
494 -71 -73 0
-496 54 0
-496 72 0
496 -54 -72 0
-498 141 0
-498 59 0
498 -141 -59 0
-506 71 0
-506 74 0
506 -71 -74 0
-511 65 0
-511 87 0
511 -65 -87 0
-515 67 0
-515 73 0
515 -67 -73 0
-521 67 0
-521 69 0
521 -67 -69 0
-842 133 0
-842 67 0
842 -133 -67 0
-531 842 0
-531 71 0
531 -842 -71 0
-538 67 0
-538 76 0
538 -67 -76 0
-542 67 0
-542 76 0
542 -67 -76 0
-544 67 0
-544 135 0
544 -67 -135 0
-547 135 0
-547 99 0
547 -135 -99 0
-569 567 0
-569 69 0
569 -567 -69 0
-572 570 0
-572 67 0
572 -570 -67 0
-843 581 0
-843 66 0
843 -581 -66 0
-583 843 0
-583 71 0
583 -843 -71 0
-588 66 0
-588 75 0
588 -66 -75 0
-591 56 0
-591 76 0
591 -56 -76 0
-600 599 0
-600 66 0
600 -599 -66 0
-608 606 0
-608 78 0
608 -606 -78 0
-611 309 0
-611 609 0
611 -309 -609 0
-613 67 0
-613 76 0
613 -67 -76 0
-844 616 0
-844 59 0
844 -616 -59 0
-617 844 0
-617 66 0
617 -844 -66 0
619 -135 0
619 -71 0
-619 135 71 0
-627 76 0
-627 625 0
627 -76 -625 0
-629 68 0
-629 70 0
629 -68 -70 0
-632 68 0
-632 76 0
632 -68 -76 0
-635 52 0
-635 633 0
635 -52 -633 0
-640 59 0
-640 638 0
640 -59 -638 0
-643 66 0
-643 641 0
643 -66 -641 0
-652 68 0
-652 77 0
652 -68 -77 0
-685 56 0
-685 69 0
685 -56 -69 0
-689 67 0
-689 688 0
689 -67 -688 0
845 -129 0
845 -527 0
-845 129 527 0
702 -845 0
702 -551 0
-702 845 551 0
846 -375 0
846 -558 0
-846 375 558 0
710 -846 0
710 -77 0
-710 846 77 0
-713 711 0
-713 68 0
713 -711 -68 0
725 -470 0
725 -590 0
-725 470 590 0
735 -626 0
735 -414 0
-735 626 414 0
-738 737 0
-738 61 0
738 -737 -61 0
740 -605 0
740 -642 0
-740 605 642 0
750 -664 0
750 -562 0
-750 664 562 0
757 -670 0
757 -523 0
-757 670 523 0
774 -404 0
774 -540 0
-774 404 540 0
847 -276 0
847 -77 0
-847 276 77 0
787 -847 0
787 -330 0
-787 847 330 0
848 -533 0
848 -758 0
-848 533 758 0
794 -848 0
794 -729 0
-794 848 729 0
849 -499 0
849 -326 0
-849 499 326 0
796 -849 0
796 -736 0
-796 849 736 0
850 -748 0
850 -639 0
-850 748 639 0
799 -850 0
799 -770 0
-799 850 770 0
802 -658 0
802 -631 0
-802 658 631 0
851 -753 0
851 -598 0
-851 753 598 0
807 -851 0
807 -505 0
-807 851 505 0
814 -622 0
814 -620 0
-814 622 620 0
815 -79 0
815 -95 0
-815 79 95 0
816 -680 0
816 -726 0
-816 680 726 0
817 -719 0
817 -746 0
-817 719 746 0
